param set_len = 30;
param target_sum = 4458431;
param values := [0] 319221 [1] 236786 [2] 49823 [3] 59955 [4] 517224 [5] 333899 [6] 266271 [7] 504347 [8] 421795 [9] 305034 [10] 191797 [11] 20761 [12] 209650 [13] 129750 [14] 207586 [15] 420976 [16] 71327 [17] 170948 [18] 234615 [19] 474851 [20] 385721 [21] 430441 [22] 470330 [23] 379833 [24] 203254 [25] 40875 [26] 289655 [27] 418882 [28] 506225 [29] 187233 ;
